WARNING: for repeatability, setting FPU to use double precision
============================[ Problem Statistics ]=============================
|                                                                             |
|  Number of variables:         31364                                         |
|  Number of clauses:           94069                                         |
|  Parse time:                   0.02 s                                       |
|                                                                             |
c ============================[ Search Statistics ]==============================
c | Conflicts |          ORIGINAL         |          LEARNT          | Progress |
c |           |    Vars  Clauses Literals |    Limit  Clauses Lit/Cl |          |
c ===============================================================================
We had 44 decisions of which only 0 were on extended
We had 1263473 decisions of which only 0 were on extended
c Switched to VSIDS.
We had 1713598 decisions of which only 0.000408497 were on extended
We had 2454347 decisions of which only 0.0127121 were on extended
c Switched to LRB.
We had 2903161 decisions of which only 0.0160515 were on extended
We had 3149349 decisions of which only 0.0226078 were on extended
c Switched to VSIDS.
We had 3167245 decisions of which only 0.0224801 were on extended
We had 3179601 decisions of which only 0.0223927 were on extended
We had 3191526 decisions of which only 0.0223091 were on extended
We had 3203975 decisions of which only 0.0222224 were on extended
We had 3216400 decisions of which only 0.0221366 were on extended
We had 3228851 decisions of which only 0.0220512 were on extended
c Switched to LRB.
We had 3242296 decisions of which only 0.0219906 were on extended
We had 3257207 decisions of which only 0.0218899 were on extended
c Switched to VSIDS.
We had 3271025 decisions of which only 0.0217974 were on extended
c Switched to LRB.
We had 3285840 decisions of which only 0.0217296 were on extended
c Switched to VSIDS.
We had 3300051 decisions of which only 0.021636 were on extended
c Switched to LRB.
We had 3312274 decisions of which only 0.0215864 were on extended
c Switched to VSIDS.
We had 3328760 decisions of which only 0.0214795 were on extended
Window full
Continue
We had 3339888 decisions of which only 0.0214079 were on extended
c Switched to LRB.
We had 3353027 decisions of which only 0.0213538 were on extended
We had 3369381 decisions of which only 0.0212502 were on extended
c Switched to VSIDS.
We had 3382421 decisions of which only 0.0211683 were on extended
We had 3394145 decisions of which only 0.0210952 were on extended
c Switched to LRB.
We had 3408261 decisions of which only 0.0210958 were on extended
We had 3420778 decisions of which only 0.0210186 were on extended
c Switched to VSIDS.
We had 3432538 decisions of which only 0.0209466 were on extended
We had 3443702 decisions of which only 0.0208787 were on extended
We had 3455086 decisions of which only 0.0208099 were on extended
c Switched to LRB.
c Switched to VSIDS.
Window full
Deactivate
We had 3469336 decisions of which only 0.0208974 were on extended
We had 3480033 decisions of which only 0.0208331 were on extended
We had 3490607 decisions of which only 0.02077 were on extended
c ===============================================================================
restarts                  : 834
conflicts                 : 314303         (499 /sec)
decisions                 : 3495113        (0.00 % random) (5546 /sec)
propagations              : 1680522716     (2666868 /sec)
conflict literals         : 20111452       (74.43 % deleted)

conflicts w/ DIP found    : 207782         (66.11 % of conflicts)
conflicts w/ dangerous DIP: 0              (0.00 % of conflicts)
conflicts w/ DIP-learning : 273            (0.09 % of conflicts)
decisions on ext vars     : 726            (0.02 % of decisions)
total ext vars            : 213         
tried delete ext vars     : 1           
deleted ext vars          : 1           
max ext vars              : 212         

Memory used               : 78.00 MB
CPU time                  : 630.148 s
DIP computation time      : 38.7028 s (6.14 % of total time)
ER_sel time               : 0.398563 s
ER_add time               : 0.00169 s
ER_delC time              : 0 s
ER_delV time              : 0.000524 s
ER_sub time               : 0.441062 s
ER_stat time              : 0 s

SATISFIABLE
